1964.97 0
0 45 43 42 38 56 76 52 0 
0 19 20 26 99 17 0 
0 49 32 58 67 30 28 41 39 40 33 31 36 47 48 34 37 46 54 59 0 
0 18 90 92 97 23 11 0 
0 25 68 44 29 60 66 64 0 
0 93 89 95 98 94 88 91 96 0 
0 24 75 74 73 14 22 0 
0 53 35 63 62 57 55 61 0 
0 51 80 79 78 77 69 71 72 70 0 
0 12 15 13 85 81 82 86 84 87 50 83 65 0 
0 16 4 3 5 10 1 2 9 8 6 100 7 21 27 0 
